259
2176
1035
453
737
291
172
1495
297
286
2121
233
132
2750
170
19
868
132
215
67
1595
1065
1479
1912
2255
794
482
935
256
1993
494
1426
151
0
245
117
17
965
81
811
117
429
570
788
211
2145
435
41
2036
196
1510
2177
1092
587
145
252
2052
392
310
509
24
628
2902
1936
96
756
556
537
1448
62
2115
200
2782
536
38
261
136
500
933
632
486
57
23
941
1030
775
282
141
989
888
644
127
2058
1022
17
1473
1296
16
378
449
